Ipopt 3.14.13: outlev = 0
expect_infeasible_problem = yes
bound_push = 0.01
bound_frac = 0.01
nlp_scaling_method = gradient-based


******************************************************************************
This program contains Ipopt, a library for large-scale nonlinear optimization.
 Ipopt is released as open source code under the Eclipse Public License (EPL).
         For more information visit https://github.com/coin-or/Ipopt
******************************************************************************

 
Ipopt 3.14.13: Optimal Solution Found

suffix ipopt_zU_out OUT;
suffix ipopt_zL_out OUT;
total_cost: 9500765.619159257 

*******************************************************************************
Gurobi 12.0.1: Set parameter LogToConsole to value 1
  tech:outlev = 1
Set parameter Presolve to value 1
  pre:solve = 1
Set parameter TimeLimit to value 3600
  lim:time = 3600
  alg:iisfind = 1
Set parameter NumericFocus to value 1
  alg:numericfocus = 1
  cvt:socp = 2
Set parameter Method to value 3
  alg:method = 3
Set parameter NodeMethod to value 1
  mip:nodemethod = 1
Set parameter ConcurrentMethod to value 3
  alg:concurrentmethod = 3
Set parameter NonConvex to value 2
  qp:nonconvex = 2
Set parameter VarBranch to value 0
  mip:varbranch = 0
Set parameter OBBT to value 1
  mip:obbt = 1
  alg:start = 1
  alg:basis = 1
Set parameter InfUnbdInfo to value 1
Gurobi Optimizer version 12.0.1 build v12.0.1rc0 (linux64 - "Debian GNU/Linux 12 (bookworm)")

CPU model: AMD Ryzen Threadripper PRO 5975WX 32-Cores, instruction set [SSE2|AVX|AVX2]
Thread count: 32 physical cores, 64 logical processors, using up to 32 threads

Non-default parameters:
TimeLimit  3600
Method  3
ConcurrentMethod  3
NodeMethod  1
OBBT  1
VarBranch  0
InfUnbdInfo  1
NonConvex  2
NumericFocus  1
Presolve  1

Optimize a model with 534 rows, 3807 columns and 3586 nonzeros
Model fingerprint: 0x84a6b82b
Model has 179 simple general constraints
  179 ABS
Model has 179 general nonlinear constraints (8592 nonlinear terms)
Variable types: 3807 continuous, 0 integer (0 binary)
Coefficient statistics:
  Matrix range     [1e-11, 2e+01]
  Objective range  [1e+02, 3e+03]
  Bounds range     [1e-03, 5e+06]
  RHS range        [2e-03, 1e+03]

User MIP start did not produce a new incumbent solution

Presolve model has 179 nlconstr
Added 5191 variables to disaggregate expressions.
Presolve added 504 rows and 0 columns
Presolve removed 0 rows and 167 columns
Presolve time: 0.13s
Presolved: 14642 rows, 8832 columns, 39426 nonzeros
Presolved model has 358 SOS constraint(s)
Presolved model has 2506 bilinear constraint(s)
Presolved model has 179 nonlinear constraint(s)

Solving non-convex MINLP

Variable types: 8474 continuous, 358 integer (358 binary)

Concurrent LP optimizer: primal and dual simplex (primal and dual model)
Showing primal log only...

Root relaxation presolved: 11998 rows, 5762 columns, 33892 nonzeros


Root simplex log...

Iteration    Objective       Primal Inf.    Dual Inf.      Time
       0    1.6413709e+06   5.554052e+07   3.107388e+09      5s

Solved with primal simplex

Root relaxation: objective 1.622384e+06, 6539 iterations, 1.20 seconds (0.11 work units)

    Nodes    |    Current Node    |     Objective Bounds      |     Work
 Expl Unexpl |  Obj  Depth IntInf | Incumbent    BestBd   Gap | It/Node Time

     0     0 1622384.35    0  621          - 1622384.35      -     -    6s
     0     0 1622384.35    0  638          - 1622384.35      -     -    6s
     0     0 1622384.35    0  650          - 1622384.35      -     -    6s
     0     0 1622384.35    0  653          - 1622384.35      -     -    6s
     0     0 1622384.35    0  954          - 1622384.35      -     -    7s
     0     0 1622384.35    0  951          - 1622384.35      -     -    7s
     0     0 1622384.35    0  956          - 1622384.35      -     -    8s
     0     0 1622384.35    0  665          - 1622384.35      -     -    9s
     0     0 1622384.35    0  702          - 1622384.35      -     -   10s
     0     0 1622384.35    0  648          - 1622384.35      -     -   12s
     0     0 1622396.36    0  913          - 1622396.36      -     -   13s
     0     0 1622409.58    0  659          - 1622409.58      -     -   13s
     0     0 1622411.90    0 1013          - 1622411.90      -     -   13s
     0     0 1622413.59    0 1106          - 1622413.59      -     -   14s
     0     0 1622413.59    0 1126          - 1622413.59      -     -   14s
     0     0 1622414.05    0 1136          - 1622414.05      -     -   14s
     0     0 1622414.07    0 1142          - 1622414.07      -     -   15s
     0     0 1622414.09    0 1077          - 1622414.09      -     -   15s
     0     0 1622414.10    0  660          - 1622414.10      -     -   16s
     0     2 1622414.10    0  660          - 1622414.10      -     -   20s
    15    32 1622425.48    4  982          - 1622425.48      -  1025   25s
    63    76 1623638.08    6 1024          - 1622504.79      -  1263   31s
    95   139 1623638.08    7 1040          - 1622504.79      -  1132   41s
   158   189 1624145.53    8 1086          - 1622504.79      -  1066  125s
   325   375 1623638.08   11  978          - 1622504.79      -   866  135s
   426   432 infeasible   12               - 1622504.79      -   799  149s
   513   508 1676532.39   12 1012          - 1622504.79      -   740  157s
   617   630 1676559.70   15  974          - 1622504.79      -   725  169s
   749   797 1676579.25   17  988          - 1622504.79      -   744  181s
   930  1098 1676574.11   20  999          - 1622504.79      -   699  199s
  1261  1520 1676574.11   26  966          - 1622504.79      -   641  225s
  1721  2201 1676574.11   31  959          - 1622504.79      -   573  331s
  2470  3125 1676574.11   40  957          - 1622504.79      -   509  471s
  3578  4120 1622519.94   19  894          - 1622519.92      -   452  554s
  4857  5003 1622519.94   35  808          - 1622519.92      -   436  713s
  6340  6117 1622519.94   45  753          - 1622519.92      -   430  850s
  7952  7214 infeasible   66               - 1622519.92      -   442 1056s
  9548  7215 1622520.48   14  179          - 1622519.92      -   449 1068s
  9550  7216 1683603.45   58    0          - 1622519.92      -   449 1072s
  9552  7218 1622558.51   30    0          - 1622519.92      -   449 1075s
  9557  7221 1622519.94   30    0          - 1622519.92      -   449 1108s
  NLP heuristic elapsed time = 5.01s
  NLP heuristic elapsed time = 10.01s
  NLP heuristic elapsed time = 15.05s
  NLP heuristic elapsed time = 20.01s
  9558  7222 1622944.38   70    0          - 1622519.92      -   449 1137s
  9559  7225 1622519.92   11  667          - 1622519.92      -   449 1141s
  9565  7235 1622519.92   13  643          - 1622519.92      -   449 1152s
  9573  7249 1622519.92   14  614          - 1622519.92      -   449 1157s
  9589  7275 1622519.92   15  645          - 1622519.92      -   450 1166s
  9621  7297 1622519.92   16  612          - 1622519.92      -   451 1173s
  9653  7398 1622519.92   17  652          - 1622519.92      -   456 1190s
  9765  7627 1622519.92   20  625          - 1622519.92      -   461 1209s
 10031  7800 1622519.92   24  626          - 1622519.92      -   463 1283s
 10299  9824 1622519.92   28  588          - 1622519.92      -   472 1362s
 12660 11855 infeasible   76               - 1622519.92      -   457 1479s
 16614 11782 1622519.92   55  538          - 1622519.92      -   402 1591s
 18551 12431 1622519.92   97  464          - 1622519.92      -   398 1731s
 20534 13067 1622519.92  115  452          - 1622519.92      -   388 1819s
 22585 13643 1622519.92   54  526          - 1622519.92      -   380 1960s
 24589 13915 infeasible   94               - 1622519.92      -   375 2046s
 26349 14240 1622519.92   70  483          - 1622519.92      -   374 2263s
 27992 13957 infeasible  101               - 1622519.92      -   372 2414s
 28487 14913 3776276.93  112  541          - 1622519.92      -   372 2552s
 30330 15482 infeasible  121               - 1622519.92      -   372 2674s
 32294 15184 infeasible   96               - 1622519.92      -   370 2675s
 32389 16520 1700214.87   99  455          - 1622519.92      -   370 2812s
 34709 17673 1622519.92   90  477          - 1622519.92      -   366 3030s
 36782 19122 infeasible   93               - 1622519.92      -   363 3236s
 39073 20012 1719914.98   68  533          - 1622519.92      -   360 3335s
 40817 21143 1629024.62   90  516          - 1622519.92      -   360 3577s
 42700 22311 infeasible  108               - 1622519.92      -   360 3588s
 44762 23088 infeasible  109               - 1622519.92      -   360 3600s

Explored 46381 nodes (16831306 simplex iterations) in 3600.03 seconds (342.89 work units)
Thread count was 32 (of 64 available processors)

Solution count 0

Time limit reached
Best objective -, best bound 1.622519917393e+06, gap -
Gurobi 12.0.1: time limit, without a feasible solution
1.68313e+07 simplex iterations
46381 branching nodes
con2_1,65: -0.00000000
con2_2,40: -0.00000106
con2_2,86: -0.00000001
con2_3,106: -0.00000001
con2_3,115: -0.00000001
con2_4,1: -0.00000000
con2_5,85: -0.00000000
con2_6,55: -0.00000000
con2_7,1: -0.00000000
con2_8,11: -0.00000000
con2_9,81: -0.00000000
con2_9,141: -0.00000000
con2_9,151: -0.00000000
con2_10,54: -0.00000001
con2_11,26: -0.00000000
con2_12,100: -0.00000015
con2_13,49: -0.00000000
con2_14,112: -0.00000001
con2_15,132: -0.00000000
con2_15,150: -0.00000000
con2_16,95: -0.00000001
con2_17,10: -0.00521243
con2_18,20: -0.00000000
con2_18,111: -0.00000001
con2_19,78: -0.00000000
con2_20,7: -0.00000000
con2_20,113: -0.00000001
con2_21,5: -0.00000000
con2_22,54: -0.00000000
con2_23,56: -0.00000000
con2_24,10: -0.00000001
con2_24,22: -0.00000001
con2_25,91: -0.00000000
con2_26,22: -0.00000000
con2_26,54: -0.00000000
con2_27,107: -0.00000000
con2_28,20: -0.00000000
con2_29,75: -0.00000000
con2_30,98: -0.00000001
con2_31,53: -0.00000001
con2_32,142: -0.00000005
con2_33,122: -0.00000001
con2_34,5: -0.00000000
con2_34,52: -0.00000000
con2_35,93: -0.00000000
con2_36,100: -0.00000000
con2_37,105: -0.00000000
con2_38,16: -0.00000004
con2_39,16: -0.00000000
con2_39,121: -0.00000000
con2_40,34: -0.00000000
con2_41,79: -0.00000000
con2_42,94: -0.00000000
con2_43,79: -0.00000000
con2_44,49: -0.00000000
con2_44,134: -0.00000001
con2_45,7: -0.00000001
con2_46,109: -0.00015485
con2_47,63: -0.00000000
con2_48,44: -0.00000000
con2_49,140: -0.00000000
con2_50,123: -0.00000001
con2_50,129: -0.00000001
con2_51,37: -0.00000000
con2_52,2: -0.00000001
con2_52,14: -0.00000001
con2_53,85: -0.00000001
con2_54,42: -0.00000000
con2_55,102: -0.00000000
con2_56,86: -0.00000000
con2_57,127: -0.00000000
con2_57,132: -0.00000000
con2_58,5: -0.00000000
con2_58,21: -0.00000001
con2_58,146: -0.00000003
con2_59,25: -0.00000000
con2_59,108: -0.00000000
con2_60,103: -0.00028488
con2_61,106: -0.00106579
con2_62,128: -0.00000010
con2_63,76: -0.00000001
con2_64,42: -0.00000000
con2_64,136: -0.00000001
con2_65,40: -0.00000000
con2_65,45: -0.00000001
con2_66,102: -0.00000002
con2_67,80: -0.00000000
con2_68,12: -0.00048727
con2_69,31: -0.00000001
con2_70,38: -0.00000003
con2_70,58: -0.00000000
con2_71,155: -0.00000000
con2_72,25: -0.00000001
con2_72,91: -0.00000001
con2_73,24: -0.00008141
con2_74,134: -0.00063506
con2_75,13: -0.00000000
con2_75,32: -0.00000000
con2_76,36: -0.00000000
con2_77,37: -0.00000000
con2_78,18: -0.00000000
con2_79,23: -0.00000000
con2_79,112: -0.00000000
con2_80,8: -0.00000000
con2_80,12: -0.00000013
con2_81,47: -0.00000000
con2_82,27: -0.00000035
con2_82,51: -0.00000001
con2_82,89: -0.00000039
con2_83,145: -0.00000000
con2_84,4: -0.00000001
con2_85,40: -0.00000000
con2_86,4: -0.00000000
con2_87,98: -0.00212523
con2_88,149: -0.00000004
con2_88,154: -0.00000003
con2_89,27: -0.00000032
con2_90,41: -0.00000000
con2_90,110: -0.00000000
con2_91,118: -0.00000000
con2_92,108: -0.00065464
con2_93,43: -0.00000000
con2_94,136: -0.00000000
con2_95,69: -0.00000001
con2_96,114: -0.00073636
con2_97,55: -0.00288586
con2_98,33: -0.00000001
con2_99,64: -0.00000003
con2_99,136: -0.00000002
con2_100,137: -0.00000001
con2_101,11: -0.00229087
con2_102,28: -0.00000000
con2_103,19: -0.00000000
con2_103,133: -0.00000000
con2_104,99: -0.00708109
con2_105,70: -0.00000000
con2_106,48: -0.00000000
con2_107,77: -0.00000000
con2_108,25: -0.00000000
con2_109,103: -0.00000000
con2_110,146: -0.00000000
con2_111,66: -0.00000002
con2_111,102: -0.00000002
con2_112,23: -0.00000000
con2_112,52: -0.00000000
con2_113,30: -0.00000001
con2_114,73: -0.00013076
con2_115,106: -0.00000001
con2_116,63: -0.00000000
con2_116,76: -0.00000022
con2_116,117: -0.00000000
con2_117,59: -0.00000000
con2_118,90: -0.00000000
con2_119,86: -0.00671291
con2_120,143: -0.00000000
con2_121,6: -0.00000000
con2_122,7: -0.00000000
con2_122,84: -0.00000001
con2_123,125: -0.00000003
con2_123,147: -0.00000000
con2_124,51: -0.00000000
con2_124,130: -0.00000000
con2_125,109: -0.00000002
con2_126,3: -0.00000000
con2_127,120: -0.00000000
con2_128,3: -0.00000007
con2_129,71: -0.00000000
con2_129,123: -0.00000001
con2_130,82: -0.00000000
con2_131,125: -0.00000217
con2_132,117: -0.00000000
con2_133,19: -0.00000000
con2_134,32: -0.00000001
con2_135,67: -0.00000000
con2_135,154: -0.00000001
con2_136,41: -0.00000000
con2_137,8: -0.00000001
con2_138,62: -0.00000013
con2_139,152: -0.00000053
con2_140,121: -0.00000000
con2_141,83: -0.00000000
con2_141,145: -0.00000000
con2_142,13: -0.00000005
con2_143,124: -0.00000000
con2_144,126: -0.00000003
con2_144,148: -0.00000035
con2_145,80: -0.00000000
con2_146,21: -0.00000000
con2_146,35: -0.00000000
con2_147,19: -0.00000000
con2_148,27: -0.00000000
con2_148,126: -0.00000001
con2_149,9: -0.00000000
con2_150,57: -0.00000000
con2_151,154: -0.00000000
con2_152,149: -0.00000000
con2_153,109: -0.00000000
con2_153,135: -0.00000000
con2_154,141: -0.00000000
con2_155,29: -0.00000000
total_cost: 9500765.619159257
solve_time: 3600.329777
